 $CONTRL SCFTYP=RHF RUNTYP=OPTIMIZE ICHARG=0 MULT=1 DFTTYP=B3LYP MAXIT=200 $END
 $SCF DIRSCF=.TRUE. $END
 $STATPT NSTEP=999 $END
 $SYSTEM MEMDDI=1000 MWORDS=30 $END
 $BASIS GBASIS=N31 NGAUSS=6 NDFUNC=1 NPFUNC=1 DIFFSP=.TRUE. $END
 $DATA
 Title
 C1
FLUORINE 9.0 8.24443000 -2.43004000 9.74224000
HYDROGEN 1.0 11.23156000 -2.40555000 10.10889000
FLUORINE 9.0 10.46157000 -2.75653000 10.60347000
HYDROGEN 1.0 9.16374000 -2.53424000 10.10006000
 $END

