 $CONTRL SCFTYP=RHF RUNTYP=ENERGY ICHARG=0 MULT=1 MAXIT=200 $END
 $SCF DIRSCF=.TRUE. $END
 $SYSTEM MWORDS=100 $END
 $BASIS GBASIS=N31 NGAUSS=6 NDFUNC=1 NPFUNC=1 DIFFSP=.TRUE. $END
 $DATA
 Title
 C1
FLUORINE 9.0 12.39080000 -2.00435000 9.31980000
HYDROGEN 1.0 12.23760000 -1.48187000 8.51664000
HYDROGEN 1.0 11.07680000 -0.62968000 6.94498000
FLUORINE 9.0 11.98798000 -0.81447000 7.18936000
HYDROGEN 1.0 11.23156000 -2.40555000 10.10889000
FLUORINE 9.0 10.46157000 -2.75653000 10.60347000
HYDROGEN 1.0 8.88418000 -0.53947000 7.10533000
FLUORINE 9.0 9.59851000 -0.47578000 6.47244000
HYDROGEN 1.0 9.16374000 -2.53424000 10.10006000
FLUORINE 9.0 8.24443000 -2.43004000 9.74224000
HYDROGEN 1.0 7.94919000 -1.40776000 8.86265000
FLUORINE 9.0 7.75388000 -0.66077000 8.22563000
 $END

