 $CONTRL SCFTYP=RHF RUNTYP=OPTIMIZE ICHARG=0 MULT=1 DFTTYP=B3LYP MAXIT=200 $END
 $SCF DIRSCF=.TRUE. $END
 $STATPT NSTEP=999 $END
 $SYSTEM MEMDDI=1000 MWORDS=30 $END
 $BASIS GBASIS=N31 NGAUSS=6 NDFUNC=1 NPFUNC=1 DIFFSP=.TRUE. $END
 $DATA
 Title
 C1
FLUORINE 9.0 -4.35142450 2.60887000 0.00000000
HYDROGEN 1.0 -3.41397550 2.60887000 0.00000000
 $END

