 $CONTRL SCFTYP=RHF RUNTYP=OPTIMIZE ICHARG=0 MULT=1 DFTTYP=B3LYP MAXIT=200 $END
 $SCF DIRSCF=.TRUE. $END
 $STATPT NSTEP=999 $END
 $SYSTEM MEMDDI=1000 MWORDS=30 $END
 $BASIS GBASIS=N31 NGAUSS=6 NDFUNC=1 NPFUNC=1 DIFFSP=.TRUE. $END
 $DATA
 Title
 C1
CARBON 6.0 -2.02131000 0.17751000 0.00956000
OXYGEN 8.0 -3.06164000 0.77588000 0.01100000
OXYGEN 8.0 -0.82210000 0.80711000 0.01048000
HYDROGEN 1.0 -1.94645000 -0.92572000 0.00750000
HYDROGEN 1.0 -0.10122000 0.15906000 0.00901000
OXYGEN 8.0 0.35476000 -1.79520000 -0.23091000
CARBON 6.0 1.39506000 -2.39360000 -0.23241000
OXYGEN 8.0 2.59426000 -1.76400000 -0.23141000
HYDROGEN 1.0 1.46996000 -3.49680000 -0.23441000
HYDROGEN 1.0 3.31516000 -2.41200000 -0.23291000
 $END

