 $CONTRL SCFTYP=RHF RUNTYP=OPTIMIZE ICHARG=0 MULT=1 DFTTYP=B3LYP MAXIT=200 $END
 $SCF DIRSCF=.TRUE. $END
 $STATPT NSTEP=999 $END
 $SYSTEM MEMDDI=1000 MWORDS=30 $END
 $BASIS GBASIS=N31 NGAUSS=6 NDFUNC=1 NPFUNC=1 DIFFSP=.TRUE. $END
 $DATA
 Title
 C1
CARBON 6.0 -0.11657310 -0.39538980 0.00070190
OXYGEN 8.0 -1.14380350 0.20867730 0.00092540
OXYGEN 8.0 1.09028610 0.21930860 -0.00018840
HYDROGEN 1.0 -0.05634880 -1.47568920 0.00110010
HYDROGEN 1.0 1.84773930 -0.37740690 -0.00053900
 $END

