 $CONTRL SCFTYP=RHF RUNTYP=OPTIMIZE ICHARG=0 MULT=1 DFTTYP=B3LYP MAXIT=200 $END
 $SCF DIRSCF=.TRUE. $END
 $STATPT NSTEP=999 $END
 $SYSTEM MEMDDI=1000 MWORDS=30 $END
 $BASIS GBASIS=N31 NGAUSS=6 NDFUNC=1 NPFUNC=1 DIFFSP=.TRUE. $END
 $DATA
 Title
 C1
BORON 5.0 -4.67106000 -1.40266000 -0.06992000
OXYGEN 8.0 -3.35429000 -1.41286000 -0.49733000
HYDROGEN 1.0 -2.95282000 -0.55886000 -0.68696000
OXYGEN 8.0 -5.43819000 -0.27699000 0.10595000
HYDROGEN 1.0 -6.29929000 -0.40907000 0.51343000
OXYGEN 8.0 -5.26909000 -2.59984000 0.20271000
HYDROGEN 1.0 -4.67431000 -3.34512000 0.05890000
 $END


