 $CONTRL SCFTYP=RHF RUNTYP=OPTIMIZE ICHARG=0 MULT=1 DFTTYP=B3LYP MAXIT=200 $END
 $SCF DIRSCF=.TRUE. $END
 $STATPT NSTEP=999 $END
 $SYSTEM MEMDDI=1000 MWORDS=30 $END
 $BASIS GBASIS=N31 NGAUSS=6 NDFUNC=1 NPFUNC=1 DIFFSP=.TRUE. $END
 $DATA
 Title
 C1
BORON 5.0 1.69598000 2.13731000 1.14187000
OXYGEN 8.0 1.53485000 0.78640000 0.87260000
OXYGEN 8.0 1.13357000 2.68736000 2.25210000
OXYGEN 8.0 2.44495000 2.88822000 0.26815000
HYDROGEN 1.0 1.41782000 3.60580000 2.41068000
HYDROGEN 1.0 2.96826000 2.34687000 -0.37063000
HYDROGEN 1.0 1.01306000 0.34094000 1.55252000
BORON 5.0 3.70909000 5.58401000 2.07644000
OXYGEN 8.0 4.10214000 4.90157000 0.96132000
OXYGEN 8.0 2.49700000 5.27110000 2.67502000
OXYGEN 8.0 4.47552000 6.57101000 2.63595000
HYDROGEN 1.0 2.32186000 5.82105000 3.44931000
HYDROGEN 1.0 5.30457000 6.72487000 2.16681000
HYDROGEN 1.0 3.44165000 4.21906000 0.68469000
 $END

