 $CONTRL  RUNTYP=OPTIMIZE ICHARG=0 MULT=1  DFTTYP=B3LYP MAXIT=60 $END
 $SCF DIRSCF=.TRUE. $END
 $SYSTEM MEMDDI=400 MWORDS=15 $END
 $BASIS GBASIS=N31 NGAUSS=6 NDFUNC=1 NPFUNC=1 DIFFSP=.TRUE. $END
 $DATA
 H2O - GeometryOptimization
 C1
OXYGEN 8.0 0.05793760 0.05793760 0.00000000
HYDROGEN 1.0 1.01073860 -0.06867630 0.00000000
HYDROGEN 1.0 -0.06867630 1.01073860 0.00000000
 $END

