 $CONTRL SCFTYP=RHF RUNTYP=ENERGY ICHARG=0 MULT=1 MPLEVL=2 MAXIT=200 $END
 $SCF DIRSCF=.TRUE. $END
 $MP2 MP2PRP=.TRUE. $END
 $SYSTEM MEMDDI=1000 MWORDS=20 $END
 $BASIS GBASIS=N31 NGAUSS=6 NDFUNC=1 NPFUNC=1 DIFFSP=.TRUE. $END
 $DATA
 Title
 C1
OXYGEN 8.0 10.00000000 10.00000000 10.00000000
HYDROGEN 1.0 10.00000000 10.00000000 11.00000000
HYDROGEN 1.0 10.47100000 10.81600000 9.66700000
OXYGEN 8.0 11.31600000 12.27900000 9.07000000
HYDROGEN 1.0 10.84500000 13.09600000 9.40300000
HYDROGEN 1.0 12.25900000 12.27900000 9.40300000
OXYGEN 8.0 13.94800000 12.27900000 10.00000000
HYDROGEN 1.0 13.94800000 12.27900000 11.00000000
HYDROGEN 1.0 14.41900000 13.09600000 9.66700000
OXYGEN 8.0 15.26400000 10.00000000 9.07000000
HYDROGEN 1.0 14.79200000 10.81600000 9.40300000
HYDROGEN 1.0 16.20700000 10.00000000 9.40300000
OXYGEN 8.0 13.94800000 7.72100000 10.00000000
HYDROGEN 1.0 13.94800000 7.72100000 11.00000000
HYDROGEN 1.0 14.41900000 8.53700000 9.66700000
OXYGEN 8.0 11.31600000 7.72100000 9.07000000
HYDROGEN 1.0 10.84500000 8.53700000 9.40300000
HYDROGEN 1.0 12.25900000 7.72100000 9.40300000
OXYGEN 8.0 10.00000000 10.00000000 5.34800000
HYDROGEN 1.0 9.05700000 10.00000000 5.68100000
HYDROGEN 1.0 10.47100000 9.18400000 5.68100000
OXYGEN 8.0 11.31600000 12.27900000 6.27800000
HYDROGEN 1.0 11.31600000 12.27900000 7.27800000
HYDROGEN 1.0 10.84500000 11.46300000 5.94500000
OXYGEN 8.0 13.94800000 12.27900000 5.34800000
HYDROGEN 1.0 13.00500000 12.27900000 5.68100000
HYDROGEN 1.0 14.41900000 11.46300000 5.68100000
OXYGEN 8.0 15.26400000 10.00000000 6.27800000
HYDROGEN 1.0 15.26400000 10.00000000 7.27800000
HYDROGEN 1.0 14.79200000 9.18400000 5.94500000
OXYGEN 8.0 13.94800000 7.72100000 5.34800000
HYDROGEN 1.0 13.00500000 7.72100000 5.68100000
HYDROGEN 1.0 14.41900000 6.90400000 5.68100000
OXYGEN 8.0 11.31600000 7.72100000 6.27800000
HYDROGEN 1.0 11.31600000 7.72100000 7.27800000
HYDROGEN 1.0 10.84500000 6.90400000 5.94500000
 $END

